int NumberPatients = 139
int NumberOfRooms = 3
int NumberSurgeons = 17
int NumberOfDays = 6
Duration = [32,105,256,97,72,47,40,39,263,119,131,60,252,85,140,119,47,39,132,50,38,97,47,58,130,131,85,58,60,32,80,66,31,97,47,103,33,47,119,105,66,119,32,119,60,159,95,119,47,98,76,78,78,263,201,131,47,131,53,75,28,32,38,47,32,66,119,98,76,227,66,166,79,47,32,40,101,38,98,59,47,29,88,105,50,119,31,119,210,107,60,67,60,66,201,67,157,66,97,32,98,60,98,68,47,66,132,107,39,98,60,125,119,72,47,103,119,47,32,58,47,130,59,47,98,65,47,119,32,98,85,98,32,47,98,98,132,166,31];
Priority = [0,0,0,0,0,0,0,0,0,0,0,0,0,0,0,0,0,0,0,0,0,1,0,0,0,0,0,0,0,0,0,0,0,0,0,0,0,0,0,0,0,0,0,0,0,0,0,0,0,0,0,0,1,0,0,0,0,0,0,0,1,0,0,0,0,0,0,0,0,0,0,0,0,0,1,0,0,0,0,0,0,0,0,0,0,0,0,0,0,0,0,0,0,0,0,0,0,0,0,0,0,0,0,0,0,0,0,0,0,0,0,0,0,0,0,0,0,0,1,0,0,0,0,0,0,0,0,0,0,0,0,0,0,0,0,0,1,0,0];
Waiting = [80,37,164,45,155,121,49,81,79,312,289,150,604,24,134,43,315,50,52,207,45,123,80,36,319,480,127,148,50,141,305,98,51,23,410,39,46,186,66,543,95,81,37,84,211,120,456,21,169,106,31,183,43,52,158,43,134,21,99,79,25,183,120,52,214,53,59,366,148,270,259,144,51,394,196,137,115,445,190,389,116,171,49,417,37,36,141,115,46,259,45,185,45,191,59,73,52,72,84,36,113,141,387,73,274,141,211,45,232,120,36,141,144,221,56,115,78,478,324,185,31,375,37,24,141,178,78,60,459,79,24,221,32,135,256,113,158,36,172];
Surgeon = [3,11,2,6,6,7,2,5,9,5,8,2,12,3,8,10,3,1,2,2,3,6,3,5,2,2,2,13,3,1,6,2,2,7,4,5,4,8,7,5,2,2,3,1,1,5,1,5,5,16,1,5,3,3,6,6,13,8,2,9,5,5,1,6,6,3,9,6,3,5,1,3,1,6,1,14,3,1,5,1,1,4,1,2,4,9,8,2,4,11,6,1,2,2,12,2,1,1,10,6,7,5,4,6,6,4,4,3,1,10,5,9,12,3,4,6,9,1,1,1,5,2,2,7,4,3,2,2,8,1,2,2,2,7,6,6,6,6,3];
BlockAvailability = [[[1,0],[0,0],[0,0]],[[0,0],[0,1],[0,0]],[[1,0],[0,0],[0,0]],[[1,0],[0,0],[0,0]],[[0,1],[0,0],[0,0]],[[0,0],[0,0],[0,0]]];
SurgeonAvailability = [[[1,1],[1,1],[1,1],[1,1],[1,1],[1,1]],[[1,1],[1,1],[1,1],[1,1],[1,1],[1,1]],[[1,1],[1,1],[1,1],[1,1],[1,1],[1,1]],[[1,1],[1,1],[1,1],[1,1],[1,1],[1,1]],[[1,1],[1,1],[1,1],[1,1],[1,1],[1,1]],[[1,1],[1,1],[1,1],[1,1],[1,1],[1,1]],[[1,1],[1,1],[1,1],[1,1],[1,1],[1,1]],[[1,1],[1,1],[1,1],[1,1],[1,1],[1,1]],[[1,1],[1,1],[1,1],[1,1],[1,1],[1,1]],[[1,1],[1,1],[1,1],[1,1],[1,1],[1,1]],[[1,1],[1,1],[1,1],[1,1],[1,1],[1,1]],[[1,1],[1,1],[1,1],[1,1],[1,1],[1,1]],[[1,1],[1,1],[1,1],[1,1],[1,1],[1,1]],[[1,1],[1,1],[1,1],[1,1],[1,1],[1,1]],[[1,1],[1,1],[1,1],[1,1],[1,1],[1,1]],[[1,1],[1,1],[1,1],[1,1],[1,1],[1,1]],[[1,1],[1,1],[1,1],[1,1],[1,1],[1,1]]];
